### TRASPORTO FRIGO: dati ###
#############################


#INSIEMI
set I := sA sB sC;
set J := m1 m2 m3 m4;

#PARAMETRI
#param C := sA m1 6 sA m2 8 ....

param C : 
	m1	m2	m3	m4 :=
sA	6	8	3	4
sB	2	3	1	3
sC 	2	4	6	5
;

param O:= sA 70 sB 90 sC 40;

param D := 
m1 10
m2 60
m3 30
m4 40
;
















